
Gurobi 6.5.2 (linux64) logging started Tue Sep 20 21:16:30 2016


Gurobi 6.5.2 (linux64) logging started Tue Sep 20 21:16:30 2016

Optimize a model with 101 rows, 418 columns and 861 nonzeros
Coefficient statistics:
  Matrix range    [1e+00, 2e+00]
  Objective range [4e+00, 1e+02]
  Bounds range    [1e+00, 1e+00]
  RHS range       [1e+00, 1e+00]
Found heuristic solution: objective 2761
Presolve removed 43 rows and 33 columns
Presolve time: 0.00s
Presolved: 58 rows, 385 columns, 772 nonzeros
Variable types: 0 continuous, 385 integer (385 binary)

Root relaxation: objective 1.255500e+03, 81 iterations, 0.00 seconds

    Nodes    |    Current Node    |     Objective Bounds      |     Work
 Expl Unexpl |  Obj  Depth IntInf | Incumbent    BestBd   Gap | It/Node Time

     0     0 1255.50000    0    4 2761.00000 1255.50000  54.5%     -    0s
H    0     0                    1493.0000000 1255.50000  15.9%     -    0s
H    0     0                    1266.0000000 1255.50000  0.83%     -    0s
     0     0 1263.50000    0    4 1266.00000 1263.50000  0.20%     -    0s
*    0     0               0    1265.0000000 1265.00000  0.00%     -    0s

Explored 0 nodes (154 simplex iterations) in 0.01 seconds
Thread count was 8 (of 8 available processors)

Optimal solution found (tolerance 1.00e-04)
Best objective 1.265000000000e+03, best bound 1.265000000000e+03, gap 0.0%
